NAME : netgen18-2-3
COMMENT : Generated using the function generateClusteredNetwork from the R-package netgen (Bossek,2015) - Number of clusters: 2
TYPE : TSP
DIMENSION : 18
EDGE_WEIGHT_TYPE : EUC_2D
NODE_COORD_SECTION
1 83.0375250094 6.3420932306
2 81.3676402264 14.5878486742
3 84.7963313379 1.1142620765
4 61.1530220953 5.344155739
5 87.2108213655 17.995594588
6 86.1774379669 3.3980162581
7 79.0764447441 2.5255883459
8 72.7863511623 0.9114337467
9 87.0632985401 7.7948371768
10 24.7832699021 53.6655493689
11 37.6192613143 57.7500679966
12 51.8666590442 76.5096021984
13 23.5790940719 59.6113581888
14 16.4087087433 53.7090146378
15 25.7425592637 65.6251501825
16 18.6003879337 70.9461616537
17 46.2546129942 65.8203602193
18 21.6642778637 70.6748320828
EOF
